
Gurobi 9.0.1 (linux64) logging started Thu Apr 30 15:50:54 2020

Gurobi Optimizer version 9.0.1 build v9.0.1rc0 (linux64)
Optimize a model with 12677 rows, 12060 columns and 201690 nonzeros
Model fingerprint: 0x2302a96a
Variable types: 0 continuous, 12060 integer (12032 binary)
Coefficient statistics:
  Matrix range     [1e+00, 1e+01]
  Objective range  [3e+00, 1e+02]
  Bounds range     [1e+00, 1e+00]
  RHS range        [1e+00, 1e+00]

User MIP start produced solution with objective 998 (0.34s)
Loaded user MIP start with objective 998

Presolve removed 3752 rows and 3270 columns
Presolve time: 3.55s
Presolved: 8925 rows, 8790 columns, 167925 nonzeros
Variable types: 0 continuous, 8790 integer (8764 binary)

Root simplex log...

Iteration    Objective       Primal Inf.    Dual Inf.      Time
    1969    5.5400009e+02   1.074090e+03   0.000000e+00      5s
    5209    5.7028434e+02   1.252187e+04   0.000000e+00     10s
    7129    5.7510294e+02   6.575759e+02   0.000000e+00     15s
    8735    5.7732198e+02   5.446738e+02   0.000000e+00     20s
   10280    5.7847427e+02   3.817064e+03   0.000000e+00     25s
   11927    5.7894236e+02   2.110814e+01   0.000000e+00     30s
   12346    5.7902921e+02   0.000000e+00   0.000000e+00     32s

Root relaxation: objective 5.790292e+02, 12346 iterations, 27.92 seconds

    Nodes    |    Current Node    |     Objective Bounds      |     Work
 Expl Unexpl |  Obj  Depth IntInf | Incumbent    BestBd   Gap | It/Node Time

     0     0  579.02921    0 1951  998.00000  579.02921  42.0%     -   34s
     0     0  598.51843    0 1977  998.00000  598.51843  40.0%     -   80s
     0     0  600.24626    0 1922  998.00000  600.24626  39.9%     -   98s
     0     0  600.35097    0 1926  998.00000  600.35097  39.8%     -  103s
     0     0  600.35811    0 1925  998.00000  600.35811  39.8%     -  106s
     0     0  600.35828    0 1918  998.00000  600.35828  39.8%     -  106s
     0     0  613.91236    0 2023  998.00000  613.91236  38.5%     -  154s
     0     0  615.02607    0 2049  998.00000  615.02607  38.4%     -  179s
     0     0  615.02740    0 2013  998.00000  615.02740  38.4%     -  180s
     0     0  623.60764    0 2168  998.00000  623.60764  37.5%     -  277s
     0     0  624.52557    0 2140  998.00000  624.52557  37.4%     -  299s
     0     0  624.55742    0 2117  998.00000  624.55742  37.4%     -  304s
     0     0  624.55984    0 2116  998.00000  624.55984  37.4%     -  305s
     0     0  628.36910    0 2194  998.00000  628.36910  37.0%     -  404s
     0     0  628.76945    0 2203  998.00000  628.76945  37.0%     -  431s
     0     0  628.79071    0 2217  998.00000  628.79071  37.0%     -  437s
     0     0  628.80125    0 2216  998.00000  628.80125  37.0%     -  441s
     0     0  630.01074    0 2197  998.00000  630.01074  36.9%     -  483s
     0     0  630.14134    0 2178  998.00000  630.14134  36.9%     -  498s
     0     0  630.18149    0 2192  998.00000  630.18149  36.9%     -  503s
     0     0  630.18743    0 2194  998.00000  630.18743  36.9%     -  505s
     0     0  630.57508    0 2231  998.00000  630.57508  36.8%     -  529s
     0     0  630.63450    0 2226  998.00000  630.63450  36.8%     -  546s
     0     0  630.64579    0 2225  998.00000  630.64579  36.8%     -  550s
     0     0  631.08058    0 2176  998.00000  631.08058  36.8%     -  578s
     0     0  631.14165    0 2177  998.00000  631.14165  36.8%     -  587s
     0     0  631.15164    0 2171  998.00000  631.15164  36.8%     -  592s
     0     0  631.58945    0 2186  998.00000  631.58945  36.7%     -  633s
     0     0  631.66078    0 2165  998.00000  631.66078  36.7%     -  648s
     0     0  631.67141    0 2182  998.00000  631.67141  36.7%     -  652s
     0     0  632.03241    0 2119  998.00000  632.03241  36.7%     -  672s
     0     0  632.13253    0 2178  998.00000  632.13253  36.7%     -  689s
     0     0  632.15391    0 2182  998.00000  632.15391  36.7%     -  694s
     0     0  632.16102    0 2166  998.00000  632.16102  36.7%     -  697s
     0     0  632.29536    0 2196  998.00000  632.29536  36.6%     -  708s
     0     0  632.30289    0 2176  998.00000  632.30289  36.6%     -  716s
     0     0  632.45711    0 2174  998.00000  632.45711  36.6%     -  728s
     0     0  632.45711    0 2158  998.00000  632.45711  36.6%     -  736s
     0     2  632.47747    0 2147  998.00000  632.47747  36.6%     -  833s
     1     3  635.20320    1 2114  998.00000  632.47747  36.6% 15838  893s
     2     4  637.10439    1 1972  998.00000  635.20320  36.4% 22243  998s
     3     5  639.83072    2 2054  998.00000  635.20320  36.4% 21079 1062s
     4     6  638.55444    2 2133  998.00000  637.10625  36.2% 20232 1130s
     5     7  639.61924    3 2119  998.00000  637.10625  36.2% 17301 1148s
     6     8  658.60127    3 1922  998.00000  637.10625  36.2% 25556 1384s
     7     9  640.08609    4 2116  998.00000  637.10625  36.2% 22448 1397s
     8    10  661.35249    4 1863  998.00000  637.10625  36.2% 25669 1567s
     9    11  640.55121    5 2114  998.00000  637.10625  36.2% 23213 1580s
    10    12  682.70422    5 1886  998.00000  637.10625  36.2% 25348 1704s
    11    13  641.02738    6 2087  998.00000  637.10625  36.2% 23715 1725s
    12    14  660.92692    6 1952  998.00000  637.10625  36.2% 24004 1802s
    13    15  642.57053    7 2133  998.00000  637.10625  36.2% 23448 1852s
    14    16  661.58272    7 1920  998.00000  637.10625  36.2% 23755 1943s
    15    17  643.02184    8 2132  998.00000  637.10625  36.2% 22712 1967s
    16    18  660.87183    8 2014  998.00000  637.10625  36.2% 23499 2077s
    17    19  644.43316    9 2065  998.00000  637.10625  36.2% 22577 2107s
    18    20  667.53845    9 1997  998.00000  637.10625  36.2% 23781 2276s
    19    21  664.61340   10 1984  998.00000  637.10625  36.2% 24167 2395s
    20    22  644.49994   10 2076  998.00000  637.10625  36.2% 23097 2403s
    21    23  664.32595   11 2014  998.00000  637.10625  36.2% 23256 2483s
    22    24  644.53752   11 2066  998.00000  637.10625  36.2% 22264 2504s
    23    25  645.08468   12 2068  998.00000  637.10625  36.2% 21493 2519s
    24    26  685.03465   13 1943  998.00000  637.10625  36.2% 22668 2704s
    25    27  645.15538   13 2091  998.00000  637.10625  36.2% 21893 2716s
    26    28  645.41825   14 2080  998.00000  637.10625  36.2% 21185 2728s
    27    29  645.71382   15 2079  998.00000  637.10625  36.2% 20555 2744s
    28    30  663.75157   15 2023  998.00000  637.10625  36.2% 20942 2853s
    29    31  646.15995   16 2073  998.00000  637.10625  36.2% 20335 2866s
    30    32  663.46137   16 2005  998.00000  637.10625  36.2% 21021 3040s
    31    33  647.40176   17 2104  998.00000  637.10625  36.2% 20652 3066s
    32    34  665.20689   17 1978  998.00000  637.10625  36.2% 21092 3161s
    33    35  649.03318   18 2069  998.00000  637.10625  36.2% 20691 3190s
    34    36  662.78750   18 2007  998.00000  637.10625  36.2% 20955 3295s
    35    37  650.14458   19 2099  998.00000  637.10625  36.2% 20662 3325s
    36    38  676.95807   19 1972  998.00000  637.10625  36.2% 20910 3413s
    37    39  650.68309   20 2094  998.00000  637.10625  36.2% 20449 3428s
    38    40  675.89291   20 2020  998.00000  637.10625  36.2% 21001 3596s

Cutting planes:
  Gomory: 1
  Cover: 1
  MIR: 36
  StrongCG: 1
  Zero half: 35
  RLT: 1242

Explored 39 nodes (973273 simplex iterations) in 3600.01 seconds
Thread count was 1 (of 40 available processors)

Solution count 1: 998 

Time limit reached
Best objective 9.980000000000e+02, best bound 6.380000000000e+02, gap 36.0721%

User-callback calls 22995, time in user-callback 0.05 sec
